20	5
0	3	2	3	1
1	2	6	8
2	2	15	5
3	2	12	11
4	1	10
5	1	7
6	3	17	11	13
7	3	19	6	18
8	2	15	9
9	3	11	13	17
10	2	14	16
11	2	20	4
12	1	21
13	1	21
14	1	21
15	1	21
16	1	21
17	1	21
18	1	21
19	1	21
20	1	21
21	0
0	0	0	0	0	0	0
1	9	5	0	5	3	0
2	3	5	2	3	1	2
3	3	5	0	0	0	2
4	9	4	0	3	0	5
5	8	0	5	0	1	0
6	4	1	1	5	2	4
7	5	4	2	5	3	5
8	5	2	0	2	5	0
9	6	5	0	0	0	4
10	4	1	2	2	1	2
11	5	0	4	4	3	0
12	3	5	4	1	4	5
13	3	0	2	1	4	1
14	10	5	4	4	0	5
15	9	5	5	2	4	4
16	2	1	1	0	0	1
17	1	2	1	4	0	2
18	9	0	1	3	4	1
19	7	3	0	2	0	1
20	8	2	3	5	1	3
21	0	0	0	0	0	0
6	5	6	5	6
